#
# This is the configuration-file for "mars_nwe", a free netware-emulator
# for Linux.
#
# last changed: 01-Sep-00
# new volume flag 'x' for unix access rights (Przemyslaw Czerpak) 0.99.pl20
# comment out second printer and printserver entry in 0.99.pl20
# debug log section changed some values to '1' in 0.99.pl20
#	Volume
1       SYS             /var/mars_nwe/sys	kT	111 111

#	SERNAME
2       NOVNIX

#       3       auto  1  # 'automatic' setup, use ip-number as internal net
        3       auto

# Section 4: IPX-devices (strongly recommended)
	4   0X000000001	    eth0    802.3  1

# Section 5: special device flags
5       0x0

# Section 6: version-"spoofing"
6       1   

# Section 7: password handling of DOS-clients (required)
7       8


# Section 8: special login/logout/security and other flags.
8       0x0

# Section 9: Standard creat mode for creating directories and files.
# 9  111 111

# Section 10: UID and GID with minimal rights
        10      515
        11      515

# Section 12: supervisor-login (required)
12  SUPERVISOR   admin	

# Section 13: user-logins (optional)
13	mis	mis	12345		0x1
13	pos_1	pos_1	12345abc	0x1
13	pos_2	pos_2	12345abc	0x1
13	manager	manager	123456

# Section 14: currently not used
# Section 15: automatic mapping of logins (decision required)
#15   0     top-secret

# Section 16: Tests on startup
16      2

# Section 17: some bindery / user related flags.
17       0x1

# Section 18: some queue handling related flags.
18       0x1

# Section 19-20: currently not used

# Section 21: print queues (optional)
#
# Which of the printers connected to your Linux-box should be accessible
# from the DOS-clients?
# Multiple entries are allowed.
#
# -------------------------------------------------------------------------
# Syntax:
#       21      QUEUE_NAME      [QUEUE_DIR]       [PRINT_COMMAND]
#
# QUEUE_NAME:   the name of the print queue on client-side (to make it
#               perfectly clear: _not_ the Linux-queue)
# QUEUE_DIR:    spooling directory for the print-jobs.
#               The name is the DOS (not Unix) name of this
#               directory.
#               It must be placed on the first defined volume.
#               (standard name is SYS volume).
#               Then it will be created at starttime of mars_nwe.
#               It must exist before printing.
#               (_not_ the spooling-directories of the Linux-lpd)
#               NOTE !
#               A '-' sign as QUEUE_DIR has special meaning of
#               'standard' queuedir name.  ( SYS:\SYSTEM\queueid.QDR )
#
# PRINT_COMMAND: command used for serving the print-jobs under Linux
#               (see "man lpr" and "man magicfilter" for details)
#               if the '!' is last parameter of command then
#               the queue-packet fields 'banner_user_name'
#               and 'banner_file_name' will be added to the
#               command as last parameters.
#               NOTE !
#               If a print command is not specified the job can/must be
#               printed by any print server.
#               (e.g. pserver (ncpfs utils) or external printserver)
#
#21	LP	-	lpr -
#21	LP_PS
21	OFFICEJET	 SYS:\SYSTEM\0E000001  lpr -Pbrother
#21	OFFICEJET 	-	lpr -Pbrother

# Section 22: print server entries (optional)
# adds printserver entries into bindery
# e.g. to enable printing with ncpfs pserver
# -------------------------------------------------------------------------
# Syntax:
#       22	PSERVER_NAME  QUEUE_NAME  [FLAGS]
#
# FLAGS:
#        1      Let PSERVER_NAME be a 'normal' user (type 1).
#               Used for simple qserver which works under 'normal' user login.
#
# Examples:
#       22	PS1	OCTOPUSS

#22	PS_NWE	LP_PS	1
22	PS1	OFFICEJET

# Section 30: Burst mode values (optional)
#       30      0x2000    0x2000

# Section 31: not used yet
#        31     0x0

# Section 40ff: Some pathes (optional)
#
# -------------------------------------------------------------------------
#  40 = path for vol/dev/inode->path cache, needed for client-32,namespace
40  /var/spool/nwserv/.volcache
#  41 = path for share/lock files
41  /var/spool/nwserv/.locks
#  42 = path for spool dir, e.g. internal print queue handling
42  /var/spool/nwserv
#
#
#  45 = path for bindery file's
45  /var/nwserv/db
#  46 = path for attribute handling
46  /var/nwserv/attrib
#  47 = path for trustee handling
47  /var/nwserv/trustees
# =========================================================================
# Section 50: Conversion tables by Victor Khimenko <khim@mccme.ru>
# Tables for DOS->Unix names translation & upper/lowercase translations
# For more information see doc/README.NLS
# some examples files exist in the examples directory.
# Conversation file must include 4 tables a 256 byte.
#  0 = dos2unix
#  1 = unix2dos
#  2 = down2up 'dosname'
#  3 = up2down 'dosname'
# -------------------------------------------------------------------------
# Syntax:
#       50     Filename of conversation file.
#
# Examples:
#       50     /etc/nwserv.cnv


# Changing defaults from config.h
# more information in config.h
# 60  10          # MAX_CONNECTIONS
# 61  10          # MAX_NW_VOLS
# 63  50          # MAX_DIR_BASE_ENTRIES

# 68  1           # USE_MMAP  (use mmap=1, no mmap=0)
# 69  1           # HANDLE_ALL_SAP_TYPS (all sap typs=1, only typ 4=0)

# 70  0x44444444  # NETWORK_SERIAL_NMBR (4 byte)
# 71  0x2222      # NETWORK_APPL_NMBR   (2 byte)


# --------------------------------------------------------
# You usally don't want to change anything below this line
# --------------------------------------------------------

# Sections 80-99: some more constants
# 80  50          # max_dir_search_handles (namspace.c)

# Sections 100-106: amount of debug-information
#
# FLAG:
#       0       no debug messages
#       1       errors and notes are reported
#       99      maximum debug levels

100     0               # debug IPX KERNEL (0 | 1)
101     1               # debug NWSERV
102     1               # debug NCPSERV
103     1               # debug NWCONN
104     0               # debug (start) NWCLIENT, should *always* be '0' !
105     1               # debug NWBIND
106     1               # debug NWROUTED

# Sections 200-202: logging of "nwserv"
#
200     1               # 0 = no logfile and dont daemonize nwserv/nwrouted
                        # 1 = daemonize nwserv/nwrouted and use logfile
201     /var/log/nw.log # filename of logfile
#201     syslog          # if filename == syslog then syslogd will be used for
                        # all messages

202     0x1             # flag in hex notation
                        #   0x0=append all messages to logfile.
                        # & 0x1=creat new logfile instead of appending.
#202    0x3             # & 0x2=use syslogd for error messages instead of logfile.




# Sections 210,211: timing

210     10              # 1 .. 600  (default 10) seconds after server
                        # really goes down after a down command
211     60              # 10 .. 600 (default 60) broadcasts every x seconds


# Sections 300-302: loging of routing-information

300     1               # > 0 print routing info to file every x broadcasts.
                        # ( normally minutes )
301     /var/log/nw.routes #  filename of logfile

302     0x1             # flags will be interpreted as hex value.
                        #     0 = append to this file
                        # & 0x1 = creat new routing info file
                        # & 0x2 = split info into several files
                        #         (extensions = .1, .2, .3 ... )

# Section 310: watchdogs

310     7               # send wdog's only to device net < x ticks.
                        # 0 = always send wdogs. < 0 = never send wdogs

# Section 400:
# station file for special handling of stations.

400  /etc/nwserv.stations  # for syntax see file in the examples directory.


# Section 401: nearest server
#
# for special handling of the 'get nearest server request'.
401   2       # 0 = ignore entry 400, get nearest response always enabled.
                # 1 = 400 are excludes, get nearest response normally enabled.
                # 2 = 400 are includes, get nearest response normally disabled.

# Section 402: station connect restrictions
#
# for special handling of the 'creat connection' (attach) call.
402     0       # 0 = ignore entry 400, create connection always enabled.
                # 1 = 400 are excludes, create connection normally enabled.
                # 2 = 400 are includes, create connection normally disabled.

